; benchmark generated from python API
(set-info :status unknown)
(declare-fun cell_1_6 () Int)
(declare-fun cell_1_8 () Int)
(declare-fun cell_2_5 () Int)
(declare-fun cell_2_7 () Int)
(declare-fun cell_3_3 () Int)
(declare-fun cell_4_4 () Int)
(declare-fun cell_5_8 () Int)
(declare-fun cell_6_1 () Int)
(declare-fun cell_7_9 () Int)
(declare-fun cell_8_2 () Int)
(declare-fun cell_9_5 () Int)
(declare-fun cell_1_1 () Int)
(declare-fun cell_2_1 () Int)
(declare-fun cell_3_1 () Int)
(declare-fun cell_4_1 () Int)
(declare-fun cell_5_1 () Int)
(declare-fun cell_7_1 () Int)
(declare-fun cell_8_1 () Int)
(declare-fun cell_9_1 () Int)
(declare-fun cell_1_2 () Int)
(declare-fun cell_2_2 () Int)
(declare-fun cell_3_2 () Int)
(declare-fun cell_4_2 () Int)
(declare-fun cell_5_2 () Int)
(declare-fun cell_6_2 () Int)
(declare-fun cell_7_2 () Int)
(declare-fun cell_9_2 () Int)
(declare-fun cell_1_3 () Int)
(declare-fun cell_2_3 () Int)
(declare-fun cell_4_3 () Int)
(declare-fun cell_5_3 () Int)
(declare-fun cell_6_3 () Int)
(declare-fun cell_7_3 () Int)
(declare-fun cell_8_3 () Int)
(declare-fun cell_9_3 () Int)
(declare-fun cell_1_4 () Int)
(declare-fun cell_2_4 () Int)
(declare-fun cell_3_4 () Int)
(declare-fun cell_5_4 () Int)
(declare-fun cell_6_4 () Int)
(declare-fun cell_7_4 () Int)
(declare-fun cell_8_4 () Int)
(declare-fun cell_9_4 () Int)
(declare-fun cell_1_5 () Int)
(declare-fun cell_3_5 () Int)
(declare-fun cell_4_5 () Int)
(declare-fun cell_5_5 () Int)
(declare-fun cell_6_5 () Int)
(declare-fun cell_7_5 () Int)
(declare-fun cell_8_5 () Int)
(declare-fun cell_2_6 () Int)
(declare-fun cell_3_6 () Int)
(declare-fun cell_4_6 () Int)
(declare-fun cell_5_6 () Int)
(declare-fun cell_6_6 () Int)
(declare-fun cell_7_6 () Int)
(declare-fun cell_8_6 () Int)
(declare-fun cell_9_6 () Int)
(declare-fun cell_1_7 () Int)
(declare-fun cell_3_7 () Int)
(declare-fun cell_4_7 () Int)
(declare-fun cell_5_7 () Int)
(declare-fun cell_6_7 () Int)
(declare-fun cell_7_7 () Int)
(declare-fun cell_8_7 () Int)
(declare-fun cell_9_7 () Int)
(declare-fun cell_2_8 () Int)
(declare-fun cell_3_8 () Int)
(declare-fun cell_4_8 () Int)
(declare-fun cell_6_8 () Int)
(declare-fun cell_7_8 () Int)
(declare-fun cell_8_8 () Int)
(declare-fun cell_9_8 () Int)
(declare-fun cell_1_9 () Int)
(declare-fun cell_2_9 () Int)
(declare-fun cell_3_9 () Int)
(declare-fun cell_4_9 () Int)
(declare-fun cell_5_9 () Int)
(declare-fun cell_6_9 () Int)
(declare-fun cell_8_9 () Int)
(declare-fun cell_9_9 () Int)
(assert
 (= cell_1_6 1))
(assert
 (= cell_1_8 2))
(assert
 (= cell_2_5 2))
(assert
 (= cell_2_7 1))
(assert
 (= cell_3_3 1))
(assert
 (= cell_4_4 1))
(assert
 (= cell_5_8 1))
(assert
 (= cell_6_1 1))
(assert
 (= cell_7_9 1))
(assert
 (= cell_8_2 1))
(assert
 (= cell_9_5 1))
(assert
 (let (($x4517 (= cell_1_1 9)))
 (let (($x2559 (= cell_1_1 8)))
 (let (($x2785 (= cell_1_1 7)))
 (let (($x6002 (= cell_1_1 6)))
 (let (($x2841 (= cell_1_1 5)))
 (let (($x3937 (= cell_1_1 4)))
 (let (($x1152 (= cell_1_1 3)))
 (let (($x3546 (= cell_1_1 2)))
 (let (($x6404 (= cell_1_1 1)))
 (or $x6404 $x3546 $x1152 $x3937 $x2841 $x6002 $x2785 $x2559 $x4517)))))))))))
(assert
 (let (($x1457 (= cell_2_1 9)))
 (let (($x984 (= cell_2_1 8)))
 (let (($x5401 (= cell_2_1 7)))
 (let (($x5669 (= cell_2_1 6)))
 (let (($x3946 (= cell_2_1 5)))
 (let (($x8329 (= cell_2_1 4)))
 (let (($x6422 (= cell_2_1 3)))
 (let (($x1840 (= cell_2_1 2)))
 (let (($x5853 (= cell_2_1 1)))
 (or $x5853 $x1840 $x6422 $x8329 $x3946 $x5669 $x5401 $x984 $x1457)))))))))))
(assert
 (let (($x1206 (= cell_3_1 9)))
 (let (($x3970 (= cell_3_1 8)))
 (let (($x3529 (= cell_3_1 7)))
 (let (($x2501 (= cell_3_1 6)))
 (let (($x5344 (= cell_3_1 5)))
 (let (($x1920 (= cell_3_1 4)))
 (let (($x369 (= cell_3_1 3)))
 (let (($x4895 (= cell_3_1 2)))
 (let (($x2127 (= cell_3_1 1)))
 (or $x2127 $x4895 $x369 $x1920 $x5344 $x2501 $x3529 $x3970 $x1206)))))))))))
(assert
 (let (($x5302 (= cell_4_1 9)))
 (let (($x1823 (= cell_4_1 8)))
 (let (($x3518 (= cell_4_1 7)))
 (let (($x4122 (= cell_4_1 6)))
 (let (($x5498 (= cell_4_1 5)))
 (let (($x4066 (= cell_4_1 4)))
 (let (($x972 (= cell_4_1 3)))
 (let (($x2305 (= cell_4_1 2)))
 (let (($x1494 (= cell_4_1 1)))
 (or $x1494 $x2305 $x972 $x4066 $x5498 $x4122 $x3518 $x1823 $x5302)))))))))))
(assert
 (let (($x5782 (= cell_5_1 9)))
 (let (($x4572 (= cell_5_1 8)))
 (let (($x3064 (= cell_5_1 7)))
 (let (($x3289 (= cell_5_1 6)))
 (let (($x5900 (= cell_5_1 5)))
 (let (($x3755 (= cell_5_1 4)))
 (let (($x926 (= cell_5_1 3)))
 (let (($x3673 (= cell_5_1 2)))
 (let (($x2201 (= cell_5_1 1)))
 (or $x2201 $x3673 $x926 $x3755 $x5900 $x3289 $x3064 $x4572 $x5782)))))))))))
(assert
 (let (($x5573 (= cell_6_1 1)))
 (or $x5573 (= cell_6_1 2) (= cell_6_1 3) (= cell_6_1 4) (= cell_6_1 5) (= cell_6_1 6) (= cell_6_1 7) (= cell_6_1 8) (= cell_6_1 9))))
(assert
 (let (($x376 (= cell_7_1 9)))
 (let (($x68 (= cell_7_1 8)))
 (let (($x4394 (= cell_7_1 7)))
 (let (($x3777 (= cell_7_1 6)))
 (let (($x1141 (= cell_7_1 5)))
 (let (($x4850 (= cell_7_1 4)))
 (let (($x1873 (= cell_7_1 3)))
 (let (($x5951 (= cell_7_1 2)))
 (let (($x5842 (= cell_7_1 1)))
 (or $x5842 $x5951 $x1873 $x4850 $x1141 $x3777 $x4394 $x68 $x376)))))))))))
(assert
 (let (($x4085 (= cell_8_1 9)))
 (let (($x5405 (= cell_8_1 8)))
 (let (($x4307 (= cell_8_1 7)))
 (let (($x4832 (= cell_8_1 6)))
 (let (($x5162 (= cell_8_1 5)))
 (let (($x973 (= cell_8_1 4)))
 (let (($x5548 (= cell_8_1 3)))
 (let (($x5271 (= cell_8_1 2)))
 (let (($x5521 (= cell_8_1 1)))
 (or $x5521 $x5271 $x5548 $x973 $x5162 $x4832 $x4307 $x5405 $x4085)))))))))))
(assert
 (let (($x5016 (= cell_9_1 9)))
 (let (($x9432 (= cell_9_1 8)))
 (let (($x3340 (= cell_9_1 7)))
 (let (($x6139 (= cell_9_1 6)))
 (let (($x5623 (= cell_9_1 5)))
 (let (($x5645 (= cell_9_1 4)))
 (let (($x5172 (= cell_9_1 3)))
 (let (($x1046 (= cell_9_1 2)))
 (let (($x5318 (= cell_9_1 1)))
 (or $x5318 $x1046 $x5172 $x5645 $x5623 $x6139 $x3340 $x9432 $x5016)))))))))))
(assert
 (let (($x4999 (= cell_1_2 9)))
 (let (($x6418 (= cell_1_2 8)))
 (let (($x277 (= cell_1_2 7)))
 (let (($x653 (= cell_1_2 6)))
 (let (($x2476 (= cell_1_2 5)))
 (let (($x2827 (= cell_1_2 4)))
 (let (($x2773 (= cell_1_2 3)))
 (let (($x1228 (= cell_1_2 2)))
 (let (($x788 (= cell_1_2 1)))
 (or $x788 $x1228 $x2773 $x2827 $x2476 $x653 $x277 $x6418 $x4999)))))))))))
(assert
 (let (($x3464 (= cell_2_2 9)))
 (let (($x2949 (= cell_2_2 8)))
 (let (($x3719 (= cell_2_2 7)))
 (let (($x7797 (= cell_2_2 6)))
 (let (($x5358 (= cell_2_2 5)))
 (let (($x2853 (= cell_2_2 4)))
 (let (($x3681 (= cell_2_2 3)))
 (let (($x1896 (= cell_2_2 2)))
 (let (($x3268 (= cell_2_2 1)))
 (or $x3268 $x1896 $x3681 $x2853 $x5358 $x7797 $x3719 $x2949 $x3464)))))))))))
(assert
 (let (($x3470 (= cell_3_2 9)))
 (let (($x2121 (= cell_3_2 8)))
 (let (($x3264 (= cell_3_2 7)))
 (let (($x4267 (= cell_3_2 6)))
 (let (($x3138 (= cell_3_2 5)))
 (let (($x1157 (= cell_3_2 4)))
 (let (($x6319 (= cell_3_2 3)))
 (let (($x133 (= cell_3_2 2)))
 (let (($x6176 (= cell_3_2 1)))
 (or $x6176 $x133 $x6319 $x1157 $x3138 $x4267 $x3264 $x2121 $x3470)))))))))))
(assert
 (let (($x666 (= cell_4_2 9)))
 (let (($x4993 (= cell_4_2 8)))
 (let (($x3982 (= cell_4_2 7)))
 (let (($x4000 (= cell_4_2 6)))
 (let (($x6346 (= cell_4_2 5)))
 (let (($x4497 (= cell_4_2 4)))
 (let (($x4071 (= cell_4_2 3)))
 (let (($x2194 (= cell_4_2 2)))
 (let (($x5364 (= cell_4_2 1)))
 (or $x5364 $x2194 $x4071 $x4497 $x6346 $x4000 $x3982 $x4993 $x666)))))))))))
(assert
 (let (($x4588 (= cell_5_2 9)))
 (let (($x4017 (= cell_5_2 8)))
 (let (($x661 (= cell_5_2 7)))
 (let (($x4074 (= cell_5_2 6)))
 (let (($x2525 (= cell_5_2 5)))
 (let (($x3044 (= cell_5_2 4)))
 (let (($x276 (= cell_5_2 3)))
 (let (($x2628 (= cell_5_2 2)))
 (let (($x3711 (= cell_5_2 1)))
 (or $x3711 $x2628 $x276 $x3044 $x2525 $x4074 $x661 $x4017 $x4588)))))))))))
(assert
 (let (($x3004 (= cell_6_2 9)))
 (let (($x146 (= cell_6_2 8)))
 (let (($x2381 (= cell_6_2 7)))
 (let (($x2593 (= cell_6_2 6)))
 (let (($x1561 (= cell_6_2 5)))
 (let (($x4308 (= cell_6_2 4)))
 (let (($x596 (= cell_6_2 3)))
 (let (($x5034 (= cell_6_2 2)))
 (let (($x513 (= cell_6_2 1)))
 (or $x513 $x5034 $x596 $x4308 $x1561 $x2593 $x2381 $x146 $x3004)))))))))))
(assert
 (let (($x4857 (= cell_7_2 9)))
 (let (($x5918 (= cell_7_2 8)))
 (let (($x2536 (= cell_7_2 7)))
 (let (($x196 (= cell_7_2 6)))
 (let (($x4094 (= cell_7_2 5)))
 (let (($x5404 (= cell_7_2 4)))
 (let (($x806 (= cell_7_2 3)))
 (let (($x1354 (= cell_7_2 2)))
 (let (($x769 (= cell_7_2 1)))
 (or $x769 $x1354 $x806 $x5404 $x4094 $x196 $x2536 $x5918 $x4857)))))))))))
(assert
 (let (($x3096 (= cell_8_2 1)))
 (or $x3096 (= cell_8_2 2) (= cell_8_2 3) (= cell_8_2 4) (= cell_8_2 5) (= cell_8_2 6) (= cell_8_2 7) (= cell_8_2 8) (= cell_8_2 9))))
(assert
 (let (($x3794 (= cell_9_2 9)))
 (let (($x1942 (= cell_9_2 8)))
 (let (($x1742 (= cell_9_2 7)))
 (let (($x222 (= cell_9_2 6)))
 (let (($x558 (= cell_9_2 5)))
 (let (($x5984 (= cell_9_2 4)))
 (let (($x4491 (= cell_9_2 3)))
 (let (($x4676 (= cell_9_2 2)))
 (let (($x135 (= cell_9_2 1)))
 (or $x135 $x4676 $x4491 $x5984 $x558 $x222 $x1742 $x1942 $x3794)))))))))))
(assert
 (let (($x6531 (= cell_1_3 9)))
 (let (($x6380 (= cell_1_3 8)))
 (let (($x4724 (= cell_1_3 7)))
 (let (($x6568 (= cell_1_3 6)))
 (let (($x1342 (= cell_1_3 5)))
 (let (($x1822 (= cell_1_3 4)))
 (let (($x2560 (= cell_1_3 3)))
 (let (($x2809 (= cell_1_3 2)))
 (let (($x2268 (= cell_1_3 1)))
 (or $x2268 $x2809 $x2560 $x1822 $x1342 $x6568 $x4724 $x6380 $x6531)))))))))))
(assert
 (let (($x542 (= cell_2_3 9)))
 (let (($x4467 (= cell_2_3 8)))
 (let (($x3966 (= cell_2_3 7)))
 (let (($x6051 (= cell_2_3 6)))
 (let (($x5881 (= cell_2_3 5)))
 (let (($x158 (= cell_2_3 4)))
 (let (($x2909 (= cell_2_3 3)))
 (let (($x3868 (= cell_2_3 2)))
 (let (($x3238 (= cell_2_3 1)))
 (or $x3238 $x3868 $x2909 $x158 $x5881 $x6051 $x3966 $x4467 $x542)))))))))))
(assert
 (let (($x1628 (= cell_3_3 1)))
 (or $x1628 (= cell_3_3 2) (= cell_3_3 3) (= cell_3_3 4) (= cell_3_3 5) (= cell_3_3 6) (= cell_3_3 7) (= cell_3_3 8) (= cell_3_3 9))))
(assert
 (let (($x5808 (= cell_4_3 9)))
 (let (($x715 (= cell_4_3 8)))
 (let (($x1448 (= cell_4_3 7)))
 (let (($x4045 (= cell_4_3 6)))
 (let (($x4586 (= cell_4_3 5)))
 (let (($x872 (= cell_4_3 4)))
 (let (($x3613 (= cell_4_3 3)))
 (let (($x5525 (= cell_4_3 2)))
 (let (($x4090 (= cell_4_3 1)))
 (or $x4090 $x5525 $x3613 $x872 $x4586 $x4045 $x1448 $x715 $x5808)))))))))))
(assert
 (let (($x364 (= cell_5_3 9)))
 (let (($x4248 (= cell_5_3 8)))
 (let (($x3016 (= cell_5_3 7)))
 (let (($x5980 (= cell_5_3 6)))
 (let (($x5066 (= cell_5_3 5)))
 (let (($x4622 (= cell_5_3 4)))
 (let (($x1479 (= cell_5_3 3)))
 (let (($x3846 (= cell_5_3 2)))
 (let (($x1185 (= cell_5_3 1)))
 (or $x1185 $x3846 $x1479 $x4622 $x5066 $x5980 $x3016 $x4248 $x364)))))))))))
(assert
 (let (($x2858 (= cell_6_3 2)))
 (let (($x1663 (= cell_6_3 1)))
 (or $x1663 $x2858 (= cell_6_3 3) (= cell_6_3 4) (= cell_6_3 5) (= cell_6_3 6) (= cell_6_3 7) (= cell_6_3 8) (= cell_6_3 9)))))
(assert
 (let (($x6795 (= cell_7_3 9)))
 (let (($x5071 (= cell_7_3 8)))
 (let (($x1603 (= cell_7_3 7)))
 (let (($x4977 (= cell_7_3 6)))
 (let (($x3184 (= cell_7_3 5)))
 (let (($x6540 (= cell_7_3 4)))
 (let (($x771 (= cell_7_3 3)))
 (let (($x809 (= cell_7_3 2)))
 (let (($x4125 (= cell_7_3 1)))
 (or $x4125 $x809 $x771 $x6540 $x3184 $x4977 $x1603 $x5071 $x6795)))))))))))
(assert
 (let (($x1852 (= cell_8_3 1)))
 (or $x1852 (= cell_8_3 2) (= cell_8_3 3) (= cell_8_3 4) (= cell_8_3 5) (= cell_8_3 6) (= cell_8_3 7) (= cell_8_3 8) (= cell_8_3 9))))
(assert
 (let (($x1030 (= cell_9_3 9)))
 (let (($x4260 (= cell_9_3 8)))
 (let (($x5939 (= cell_9_3 7)))
 (let (($x2506 (= cell_9_3 6)))
 (let (($x5306 (= cell_9_3 5)))
 (let (($x3237 (= cell_9_3 4)))
 (let (($x3689 (= cell_9_3 3)))
 (let (($x4554 (= cell_9_3 2)))
 (let (($x746 (= cell_9_3 1)))
 (or $x746 $x4554 $x3689 $x3237 $x5306 $x2506 $x5939 $x4260 $x1030)))))))))))
(assert
 (let (($x605 (= cell_1_4 9)))
 (let (($x3675 (= cell_1_4 8)))
 (let (($x2504 (= cell_1_4 7)))
 (let (($x532 (= cell_1_4 6)))
 (let (($x4620 (= cell_1_4 5)))
 (let (($x5178 (= cell_1_4 4)))
 (let (($x980 (= cell_1_4 3)))
 (let (($x131 (= cell_1_4 2)))
 (let (($x5879 (= cell_1_4 1)))
 (or $x5879 $x131 $x980 $x5178 $x4620 $x532 $x2504 $x3675 $x605)))))))))))
(assert
 (let (($x5299 (= cell_2_4 9)))
 (let (($x4063 (= cell_2_4 8)))
 (let (($x6567 (= cell_2_4 7)))
 (let (($x4911 (= cell_2_4 6)))
 (let (($x3839 (= cell_2_4 5)))
 (let (($x2838 (= cell_2_4 4)))
 (let (($x2479 (= cell_2_4 3)))
 (let (($x1097 (= cell_2_4 2)))
 (let (($x4119 (= cell_2_4 1)))
 (or $x4119 $x1097 $x2479 $x2838 $x3839 $x4911 $x6567 $x4063 $x5299)))))))))))
(assert
 (let (($x4316 (= cell_3_4 9)))
 (let (($x4508 (= cell_3_4 8)))
 (let (($x3954 (= cell_3_4 7)))
 (let (($x5462 (= cell_3_4 6)))
 (let (($x6185 (= cell_3_4 5)))
 (let (($x4130 (= cell_3_4 4)))
 (let (($x4425 (= cell_3_4 3)))
 (let (($x5123 (= cell_3_4 2)))
 (let (($x1113 (= cell_3_4 1)))
 (or $x1113 $x5123 $x4425 $x4130 $x6185 $x5462 $x3954 $x4508 $x4316)))))))))))
(assert
 (let (($x1374 (= cell_4_4 1)))
 (or $x1374 (= cell_4_4 2) (= cell_4_4 3) (= cell_4_4 4) (= cell_4_4 5) (= cell_4_4 6) (= cell_4_4 7) (= cell_4_4 8) (= cell_4_4 9))))
(assert
 (let (($x1126 (= cell_5_4 9)))
 (let (($x3952 (= cell_5_4 8)))
 (let (($x2405 (= cell_5_4 7)))
 (let (($x3418 (= cell_5_4 6)))
 (let (($x4167 (= cell_5_4 5)))
 (let (($x1783 (= cell_5_4 4)))
 (let (($x2754 (= cell_5_4 3)))
 (let (($x5973 (= cell_5_4 2)))
 (let (($x4617 (= cell_5_4 1)))
 (or $x4617 $x5973 $x2754 $x1783 $x4167 $x3418 $x2405 $x3952 $x1126)))))))))))
(assert
 (let (($x4121 (= cell_6_4 1)))
 (or $x4121 (= cell_6_4 2) (= cell_6_4 3) (= cell_6_4 4) (= cell_6_4 5) (= cell_6_4 6) (= cell_6_4 7) (= cell_6_4 8) (= cell_6_4 9))))
(assert
 (let (($x147 (= cell_7_4 9)))
 (let (($x4746 (= cell_7_4 8)))
 (let (($x1122 (= cell_7_4 7)))
 (let (($x6561 (= cell_7_4 6)))
 (let (($x4566 (= cell_7_4 5)))
 (let (($x5467 (= cell_7_4 4)))
 (let (($x1024 (= cell_7_4 3)))
 (let (($x2169 (= cell_7_4 2)))
 (let (($x5256 (= cell_7_4 1)))
 (or $x5256 $x2169 $x1024 $x5467 $x4566 $x6561 $x1122 $x4746 $x147)))))))))))
(assert
 (let (($x2443 (= cell_8_4 9)))
 (let (($x1605 (= cell_8_4 8)))
 (let (($x8936 (= cell_8_4 7)))
 (let (($x3071 (= cell_8_4 6)))
 (let (($x2019 (= cell_8_4 5)))
 (let (($x3669 (= cell_8_4 4)))
 (let (($x3222 (= cell_8_4 3)))
 (let (($x1467 (= cell_8_4 2)))
 (let (($x4641 (= cell_8_4 1)))
 (or $x4641 $x1467 $x3222 $x3669 $x2019 $x3071 $x8936 $x1605 $x2443)))))))))))
(assert
 (let (($x1910 (= cell_9_4 9)))
 (let (($x3473 (= cell_9_4 8)))
 (let (($x4155 (= cell_9_4 7)))
 (let (($x1837 (= cell_9_4 6)))
 (let (($x5948 (= cell_9_4 5)))
 (let (($x4670 (= cell_9_4 4)))
 (let (($x5570 (= cell_9_4 3)))
 (let (($x1675 (= cell_9_4 2)))
 (let (($x3632 (= cell_9_4 1)))
 (or $x3632 $x1675 $x5570 $x4670 $x5948 $x1837 $x4155 $x3473 $x1910)))))))))))
(assert
 (let (($x4232 (= cell_1_5 9)))
 (let (($x4577 (= cell_1_5 8)))
 (let (($x483 (= cell_1_5 7)))
 (let (($x5224 (= cell_1_5 6)))
 (let (($x700 (= cell_1_5 5)))
 (let (($x3969 (= cell_1_5 4)))
 (let (($x720 (= cell_1_5 3)))
 (let (($x5550 (= cell_1_5 2)))
 (let (($x3254 (= cell_1_5 1)))
 (or $x3254 $x5550 $x720 $x3969 $x700 $x5224 $x483 $x4577 $x4232)))))))))))
(assert
 (let (($x4540 (= cell_2_5 2)))
 (or (= cell_2_5 1) $x4540 (= cell_2_5 3) (= cell_2_5 4) (= cell_2_5 5) (= cell_2_5 6) (= cell_2_5 7) (= cell_2_5 8) (= cell_2_5 9))))
(assert
 (let (($x4013 (= cell_3_5 9)))
 (let (($x4493 (= cell_3_5 8)))
 (let (($x1230 (= cell_3_5 7)))
 (let (($x799 (= cell_3_5 6)))
 (let (($x5484 (= cell_3_5 5)))
 (let (($x5691 (= cell_3_5 4)))
 (let (($x5058 (= cell_3_5 3)))
 (let (($x5606 (= cell_3_5 2)))
 (let (($x3744 (= cell_3_5 1)))
 (or $x3744 $x5606 $x5058 $x5691 $x5484 $x799 $x1230 $x4493 $x4013)))))))))))
(assert
 (let (($x4551 (= cell_4_5 9)))
 (let (($x1888 (= cell_4_5 8)))
 (let (($x1119 (= cell_4_5 7)))
 (let (($x1114 (= cell_4_5 6)))
 (let (($x1924 (= cell_4_5 5)))
 (let (($x516 (= cell_4_5 4)))
 (let (($x4145 (= cell_4_5 3)))
 (let (($x37 (= cell_4_5 2)))
 (let (($x1902 (= cell_4_5 1)))
 (or $x1902 $x37 $x4145 $x516 $x1924 $x1114 $x1119 $x1888 $x4551)))))))))))
(assert
 (let (($x4449 (= cell_5_5 9)))
 (let (($x4087 (= cell_5_5 8)))
 (let (($x1834 (= cell_5_5 7)))
 (let (($x5183 (= cell_5_5 6)))
 (let (($x2054 (= cell_5_5 5)))
 (let (($x3045 (= cell_5_5 4)))
 (let (($x576 (= cell_5_5 3)))
 (let (($x2547 (= cell_5_5 2)))
 (let (($x6165 (= cell_5_5 1)))
 (or $x6165 $x2547 $x576 $x3045 $x2054 $x5183 $x1834 $x4087 $x4449)))))))))))
(assert
 (let (($x62 (= cell_6_5 9)))
 (let (($x2989 (= cell_6_5 8)))
 (let (($x6447 (= cell_6_5 7)))
 (let (($x1305 (= cell_6_5 6)))
 (let (($x2413 (= cell_6_5 5)))
 (let (($x6303 (= cell_6_5 4)))
 (let (($x6067 (= cell_6_5 3)))
 (let (($x3606 (= cell_6_5 2)))
 (let (($x2290 (= cell_6_5 1)))
 (or $x2290 $x3606 $x6067 $x6303 $x2413 $x1305 $x6447 $x2989 $x62)))))))))))
(assert
 (let (($x4718 (= cell_7_5 9)))
 (let (($x5731 (= cell_7_5 8)))
 (let (($x4744 (= cell_7_5 7)))
 (let (($x3580 (= cell_7_5 6)))
 (let (($x2396 (= cell_7_5 5)))
 (let (($x4548 (= cell_7_5 4)))
 (let (($x994 (= cell_7_5 3)))
 (let (($x1243 (= cell_7_5 2)))
 (let (($x1770 (= cell_7_5 1)))
 (or $x1770 $x1243 $x994 $x4548 $x2396 $x3580 $x4744 $x5731 $x4718)))))))))))
(assert
 (let (($x5644 (= cell_8_5 9)))
 (let (($x5872 (= cell_8_5 8)))
 (let (($x4140 (= cell_8_5 7)))
 (let (($x4901 (= cell_8_5 6)))
 (let (($x5561 (= cell_8_5 5)))
 (let (($x4529 (= cell_8_5 4)))
 (let (($x2263 (= cell_8_5 3)))
 (let (($x6328 (= cell_8_5 2)))
 (let (($x3536 (= cell_8_5 1)))
 (or $x3536 $x6328 $x2263 $x4529 $x5561 $x4901 $x4140 $x5872 $x5644)))))))))))
(assert
 (let (($x2958 (= cell_9_5 1)))
 (or $x2958 (= cell_9_5 2) (= cell_9_5 3) (= cell_9_5 4) (= cell_9_5 5) (= cell_9_5 6) (= cell_9_5 7) (= cell_9_5 8) (= cell_9_5 9))))
(assert
 (let (($x1070 (= cell_1_6 1)))
 (or $x1070 (= cell_1_6 2) (= cell_1_6 3) (= cell_1_6 4) (= cell_1_6 5) (= cell_1_6 6) (= cell_1_6 7) (= cell_1_6 8) (= cell_1_6 9))))
(assert
 (let (($x2952 (= cell_2_6 9)))
 (let (($x3662 (= cell_2_6 8)))
 (let (($x2590 (= cell_2_6 7)))
 (let (($x3691 (= cell_2_6 6)))
 (let (($x5213 (= cell_2_6 5)))
 (let (($x1763 (= cell_2_6 4)))
 (let (($x5522 (= cell_2_6 3)))
 (let (($x4136 (= cell_2_6 2)))
 (let (($x4422 (= cell_2_6 1)))
 (or $x4422 $x4136 $x5522 $x1763 $x5213 $x3691 $x2590 $x3662 $x2952)))))))))))
(assert
 (let (($x3324 (= cell_3_6 2)))
 (let (($x2161 (= cell_3_6 1)))
 (or $x2161 $x3324 (= cell_3_6 3) (= cell_3_6 4) (= cell_3_6 5) (= cell_3_6 6) (= cell_3_6 7) (= cell_3_6 8) (= cell_3_6 9)))))
(assert
 (let (($x1128 (= cell_4_6 1)))
 (or $x1128 (= cell_4_6 2) (= cell_4_6 3) (= cell_4_6 4) (= cell_4_6 5) (= cell_4_6 6) (= cell_4_6 7) (= cell_4_6 8) (= cell_4_6 9))))
(assert
 (let (($x4810 (= cell_5_6 9)))
 (let (($x7334 (= cell_5_6 8)))
 (let (($x2819 (= cell_5_6 7)))
 (let (($x2210 (= cell_5_6 6)))
 (let (($x3930 (= cell_5_6 5)))
 (let (($x6174 (= cell_5_6 4)))
 (let (($x5992 (= cell_5_6 3)))
 (let (($x1798 (= cell_5_6 2)))
 (let (($x3718 (= cell_5_6 1)))
 (or $x3718 $x1798 $x5992 $x6174 $x3930 $x2210 $x2819 $x7334 $x4810)))))))))))
(assert
 (let (($x3133 (= cell_6_6 1)))
 (or $x3133 (= cell_6_6 2) (= cell_6_6 3) (= cell_6_6 4) (= cell_6_6 5) (= cell_6_6 6) (= cell_6_6 7) (= cell_6_6 8) (= cell_6_6 9))))
(assert
 (let (($x4265 (= cell_7_6 9)))
 (let (($x4602 (= cell_7_6 8)))
 (let (($x2223 (= cell_7_6 7)))
 (let (($x816 (= cell_7_6 6)))
 (let (($x2903 (= cell_7_6 5)))
 (let (($x5999 (= cell_7_6 4)))
 (let (($x2114 (= cell_7_6 3)))
 (let (($x941 (= cell_7_6 2)))
 (let (($x351 (= cell_7_6 1)))
 (or $x351 $x941 $x2114 $x5999 $x2903 $x816 $x2223 $x4602 $x4265)))))))))))
(assert
 (let (($x1411 (= cell_8_6 9)))
 (let (($x5545 (= cell_8_6 8)))
 (let (($x3472 (= cell_8_6 7)))
 (let (($x1045 (= cell_8_6 6)))
 (let (($x1905 (= cell_8_6 5)))
 (let (($x5867 (= cell_8_6 4)))
 (let (($x3411 (= cell_8_6 3)))
 (let (($x3444 (= cell_8_6 2)))
 (let (($x5439 (= cell_8_6 1)))
 (or $x5439 $x3444 $x3411 $x5867 $x1905 $x1045 $x3472 $x5545 $x1411)))))))))))
(assert
 (let (($x6218 (= cell_9_6 1)))
 (or $x6218 (= cell_9_6 2) (= cell_9_6 3) (= cell_9_6 4) (= cell_9_6 5) (= cell_9_6 6) (= cell_9_6 7) (= cell_9_6 8) (= cell_9_6 9))))
(assert
 (let (($x2238 (= cell_1_7 9)))
 (let (($x5696 (= cell_1_7 8)))
 (let (($x5805 (= cell_1_7 7)))
 (let (($x668 (= cell_1_7 6)))
 (let (($x465 (= cell_1_7 5)))
 (let (($x5916 (= cell_1_7 4)))
 (let (($x3911 (= cell_1_7 3)))
 (let (($x3994 (= cell_1_7 2)))
 (let (($x2550 (= cell_1_7 1)))
 (or $x2550 $x3994 $x3911 $x5916 $x465 $x668 $x5805 $x5696 $x2238)))))))))))
(assert
 (let (($x39 (= cell_2_7 1)))
 (or $x39 (= cell_2_7 2) (= cell_2_7 3) (= cell_2_7 4) (= cell_2_7 5) (= cell_2_7 6) (= cell_2_7 7) (= cell_2_7 8) (= cell_2_7 9))))
(assert
 (let (($x2923 (= cell_3_7 2)))
 (let (($x209 (= cell_3_7 1)))
 (or $x209 $x2923 (= cell_3_7 3) (= cell_3_7 4) (= cell_3_7 5) (= cell_3_7 6) (= cell_3_7 7) (= cell_3_7 8) (= cell_3_7 9)))))
(assert
 (let (($x6582 (= cell_4_7 9)))
 (let (($x3916 (= cell_4_7 8)))
 (let (($x4214 (= cell_4_7 7)))
 (let (($x2125 (= cell_4_7 6)))
 (let (($x4433 (= cell_4_7 5)))
 (let (($x1293 (= cell_4_7 4)))
 (let (($x5562 (= cell_4_7 3)))
 (let (($x4941 (= cell_4_7 2)))
 (let (($x1137 (= cell_4_7 1)))
 (or $x1137 $x4941 $x5562 $x1293 $x4433 $x2125 $x4214 $x3916 $x6582)))))))))))
(assert
 (let (($x4143 (= cell_5_7 9)))
 (let (($x4550 (= cell_5_7 8)))
 (let (($x4545 (= cell_5_7 7)))
 (let (($x3854 (= cell_5_7 6)))
 (let (($x5422 (= cell_5_7 5)))
 (let (($x3837 (= cell_5_7 4)))
 (let (($x6360 (= cell_5_7 3)))
 (let (($x3266 (= cell_5_7 2)))
 (let (($x4738 (= cell_5_7 1)))
 (or $x4738 $x3266 $x6360 $x3837 $x5422 $x3854 $x4545 $x4550 $x4143)))))))))))
(assert
 (let (($x1184 (= cell_6_7 1)))
 (or $x1184 (= cell_6_7 2) (= cell_6_7 3) (= cell_6_7 4) (= cell_6_7 5) (= cell_6_7 6) (= cell_6_7 7) (= cell_6_7 8) (= cell_6_7 9))))
(assert
 (let (($x4972 (= cell_7_7 9)))
 (let (($x405 (= cell_7_7 8)))
 (let (($x3478 (= cell_7_7 7)))
 (let (($x3995 (= cell_7_7 6)))
 (let (($x5556 (= cell_7_7 5)))
 (let (($x4112 (= cell_7_7 4)))
 (let (($x1336 (= cell_7_7 3)))
 (let (($x6044 (= cell_7_7 2)))
 (let (($x3010 (= cell_7_7 1)))
 (or $x3010 $x6044 $x1336 $x4112 $x5556 $x3995 $x3478 $x405 $x4972)))))))))))
(assert
 (let (($x536 (= cell_8_7 1)))
 (or $x536 (= cell_8_7 2) (= cell_8_7 3) (= cell_8_7 4) (= cell_8_7 5) (= cell_8_7 6) (= cell_8_7 7) (= cell_8_7 8) (= cell_8_7 9))))
(assert
 (let (($x4109 (= cell_9_7 1)))
 (or $x4109 (= cell_9_7 2) (= cell_9_7 3) (= cell_9_7 4) (= cell_9_7 5) (= cell_9_7 6) (= cell_9_7 7) (= cell_9_7 8) (= cell_9_7 9))))
(assert
 (let (($x1542 (= cell_1_8 2)))
 (or (= cell_1_8 1) $x1542 (= cell_1_8 3) (= cell_1_8 4) (= cell_1_8 5) (= cell_1_8 6) (= cell_1_8 7) (= cell_1_8 8) (= cell_1_8 9))))
(assert
 (let (($x7555 (= cell_2_8 9)))
 (let (($x2725 (= cell_2_8 8)))
 (let (($x4532 (= cell_2_8 7)))
 (let (($x5149 (= cell_2_8 6)))
 (let (($x5697 (= cell_2_8 5)))
 (let (($x2331 (= cell_2_8 4)))
 (let (($x3284 (= cell_2_8 3)))
 (let (($x4015 (= cell_2_8 2)))
 (let (($x373 (= cell_2_8 1)))
 (or $x373 $x4015 $x3284 $x2331 $x5697 $x5149 $x4532 $x2725 $x7555)))))))))))
(assert
 (let (($x4891 (= cell_3_8 9)))
 (let (($x4416 (= cell_3_8 8)))
 (let (($x5459 (= cell_3_8 7)))
 (let (($x5417 (= cell_3_8 6)))
 (let (($x4673 (= cell_3_8 5)))
 (let (($x611 (= cell_3_8 4)))
 (let (($x632 (= cell_3_8 3)))
 (let (($x127 (= cell_3_8 2)))
 (let (($x4388 (= cell_3_8 1)))
 (or $x4388 $x127 $x632 $x611 $x4673 $x5417 $x5459 $x4416 $x4891)))))))))))
(assert
 (let (($x4815 (= cell_4_8 9)))
 (let (($x1171 (= cell_4_8 8)))
 (let (($x1279 (= cell_4_8 7)))
 (let (($x1611 (= cell_4_8 6)))
 (let (($x540 (= cell_4_8 5)))
 (let (($x6060 (= cell_4_8 4)))
 (let (($x963 (= cell_4_8 3)))
 (let (($x3500 (= cell_4_8 2)))
 (let (($x5398 (= cell_4_8 1)))
 (or $x5398 $x3500 $x963 $x6060 $x540 $x1611 $x1279 $x1171 $x4815)))))))))))
(assert
 (let (($x5535 (= cell_5_8 1)))
 (or $x5535 (= cell_5_8 2) (= cell_5_8 3) (= cell_5_8 4) (= cell_5_8 5) (= cell_5_8 6) (= cell_5_8 7) (= cell_5_8 8) (= cell_5_8 9))))
(assert
 (let (($x3568 (= cell_6_8 2)))
 (let (($x4023 (= cell_6_8 1)))
 (or $x4023 $x3568 (= cell_6_8 3) (= cell_6_8 4) (= cell_6_8 5) (= cell_6_8 6) (= cell_6_8 7) (= cell_6_8 8) (= cell_6_8 9)))))
(assert
 (let (($x761 (= cell_7_8 9)))
 (let (($x4426 (= cell_7_8 8)))
 (let (($x3788 (= cell_7_8 7)))
 (let (($x1754 (= cell_7_8 6)))
 (let (($x4658 (= cell_7_8 5)))
 (let (($x4070 (= cell_7_8 4)))
 (let (($x5874 (= cell_7_8 3)))
 (let (($x3815 (= cell_7_8 2)))
 (let (($x1289 (= cell_7_8 1)))
 (or $x1289 $x3815 $x5874 $x4070 $x4658 $x1754 $x3788 $x4426 $x761)))))))))))
(assert
 (let (($x740 (= cell_8_8 2)))
 (let (($x1670 (= cell_8_8 1)))
 (or $x1670 $x740 (= cell_8_8 3) (= cell_8_8 4) (= cell_8_8 5) (= cell_8_8 6) (= cell_8_8 7) (= cell_8_8 8) (= cell_8_8 9)))))
(assert
 (let (($x3856 (= cell_9_8 2)))
 (let (($x4518 (= cell_9_8 1)))
 (or $x4518 $x3856 (= cell_9_8 3) (= cell_9_8 4) (= cell_9_8 5) (= cell_9_8 6) (= cell_9_8 7) (= cell_9_8 8) (= cell_9_8 9)))))
(assert
 (let (($x3249 (= cell_1_9 9)))
 (let (($x1665 (= cell_1_9 8)))
 (let (($x1249 (= cell_1_9 7)))
 (let (($x503 (= cell_1_9 6)))
 (let (($x618 (= cell_1_9 5)))
 (let (($x2887 (= cell_1_9 4)))
 (let (($x5093 (= cell_1_9 3)))
 (let (($x446 (= cell_1_9 2)))
 (let (($x6585 (= cell_1_9 1)))
 (or $x6585 $x446 $x5093 $x2887 $x618 $x503 $x1249 $x1665 $x3249)))))))))))
(assert
 (let (($x1451 (= cell_2_9 9)))
 (let (($x2806 (= cell_2_9 8)))
 (let (($x5975 (= cell_2_9 7)))
 (let (($x1261 (= cell_2_9 6)))
 (let (($x1737 (= cell_2_9 5)))
 (let (($x5985 (= cell_2_9 4)))
 (let (($x4411 (= cell_2_9 3)))
 (let (($x3903 (= cell_2_9 2)))
 (let (($x3955 (= cell_2_9 1)))
 (or $x3955 $x3903 $x4411 $x5985 $x1737 $x1261 $x5975 $x2806 $x1451)))))))))))
(assert
 (let (($x5601 (= cell_3_9 9)))
 (let (($x1803 (= cell_3_9 8)))
 (let (($x4415 (= cell_3_9 7)))
 (let (($x2522 (= cell_3_9 6)))
 (let (($x4018 (= cell_3_9 5)))
 (let (($x1458 (= cell_3_9 4)))
 (let (($x5210 (= cell_3_9 3)))
 (let (($x6425 (= cell_3_9 2)))
 (let (($x896 (= cell_3_9 1)))
 (or $x896 $x6425 $x5210 $x1458 $x4018 $x2522 $x4415 $x1803 $x5601)))))))))))
(assert
 (let (($x5875 (= cell_4_9 9)))
 (let (($x1532 (= cell_4_9 8)))
 (let (($x1536 (= cell_4_9 7)))
 (let (($x3792 (= cell_4_9 6)))
 (let (($x4376 (= cell_4_9 5)))
 (let (($x3666 (= cell_4_9 4)))
 (let (($x34 (= cell_4_9 3)))
 (let (($x854 (= cell_4_9 2)))
 (let (($x4451 (= cell_4_9 1)))
 (or $x4451 $x854 $x34 $x3666 $x4376 $x3792 $x1536 $x1532 $x5875)))))))))))
(assert
 (let (($x3905 (= cell_5_9 9)))
 (let (($x5372 (= cell_5_9 8)))
 (let (($x1241 (= cell_5_9 7)))
 (let (($x3014 (= cell_5_9 6)))
 (let (($x2580 (= cell_5_9 5)))
 (let (($x4613 (= cell_5_9 4)))
 (let (($x1086 (= cell_5_9 3)))
 (let (($x1723 (= cell_5_9 2)))
 (let (($x320 (= cell_5_9 1)))
 (or $x320 $x1723 $x1086 $x4613 $x2580 $x3014 $x1241 $x5372 $x3905)))))))))))
(assert
 (let (($x4860 (= cell_6_9 9)))
 (let (($x3579 (= cell_6_9 8)))
 (let (($x777 (= cell_6_9 7)))
 (let (($x3743 (= cell_6_9 6)))
 (let (($x3879 (= cell_6_9 5)))
 (let (($x2043 (= cell_6_9 4)))
 (let (($x1424 (= cell_6_9 3)))
 (let (($x4934 (= cell_6_9 2)))
 (let (($x4223 (= cell_6_9 1)))
 (or $x4223 $x4934 $x1424 $x2043 $x3879 $x3743 $x777 $x3579 $x4860)))))))))))
(assert
 (let (($x1254 (= cell_7_9 1)))
 (or $x1254 (= cell_7_9 2) (= cell_7_9 3) (= cell_7_9 4) (= cell_7_9 5) (= cell_7_9 6) (= cell_7_9 7) (= cell_7_9 8) (= cell_7_9 9))))
(assert
 (let (($x5374 (= cell_8_9 1)))
 (or $x5374 (= cell_8_9 2) (= cell_8_9 3) (= cell_8_9 4) (= cell_8_9 5) (= cell_8_9 6) (= cell_8_9 7) (= cell_8_9 8) (= cell_8_9 9))))
(assert
 (let (($x6062 (= cell_9_9 1)))
 (or $x6062 (= cell_9_9 2) (= cell_9_9 3) (= cell_9_9 4) (= cell_9_9 5) (= cell_9_9 6) (= cell_9_9 7) (= cell_9_9 8) (= cell_9_9 9))))
(assert
 (and (distinct cell_1_1 cell_1_2 cell_1_3 cell_1_4 cell_1_5 cell_1_6 cell_1_7 cell_1_8 cell_1_9) true))
(assert
 (and (distinct cell_2_1 cell_2_2 cell_2_3 cell_2_4 cell_2_5 cell_2_6 cell_2_7 cell_2_8 cell_2_9) true))
(assert
 (and (distinct cell_3_1 cell_3_2 cell_3_3 cell_3_4 cell_3_5 cell_3_6 cell_3_7 cell_3_8 cell_3_9) true))
(assert
 (and (distinct cell_4_1 cell_4_2 cell_4_3 cell_4_4 cell_4_5 cell_4_6 cell_4_7 cell_4_8 cell_4_9) true))
(assert
 (and (distinct cell_5_1 cell_5_2 cell_5_3 cell_5_4 cell_5_5 cell_5_6 cell_5_7 cell_5_8 cell_5_9) true))
(assert
 (and (distinct cell_6_1 cell_6_2 cell_6_3 cell_6_4 cell_6_5 cell_6_6 cell_6_7 cell_6_8 cell_6_9) true))
(assert
 (and (distinct cell_7_1 cell_7_2 cell_7_3 cell_7_4 cell_7_5 cell_7_6 cell_7_7 cell_7_8 cell_7_9) true))
(assert
 (and (distinct cell_8_1 cell_8_2 cell_8_3 cell_8_4 cell_8_5 cell_8_6 cell_8_7 cell_8_8 cell_8_9) true))
(assert
 (and (distinct cell_9_1 cell_9_2 cell_9_3 cell_9_4 cell_9_5 cell_9_6 cell_9_7 cell_9_8 cell_9_9) true))
(assert
 (and (distinct cell_1_1 cell_2_1 cell_3_1 cell_4_1 cell_5_1 cell_6_1 cell_7_1 cell_8_1 cell_9_1) true))
(assert
 (and (distinct cell_1_2 cell_2_2 cell_3_2 cell_4_2 cell_5_2 cell_6_2 cell_7_2 cell_8_2 cell_9_2) true))
(assert
 (and (distinct cell_1_3 cell_2_3 cell_3_3 cell_4_3 cell_5_3 cell_6_3 cell_7_3 cell_8_3 cell_9_3) true))
(assert
 (and (distinct cell_1_4 cell_2_4 cell_3_4 cell_4_4 cell_5_4 cell_6_4 cell_7_4 cell_8_4 cell_9_4) true))
(assert
 (and (distinct cell_1_5 cell_2_5 cell_3_5 cell_4_5 cell_5_5 cell_6_5 cell_7_5 cell_8_5 cell_9_5) true))
(assert
 (and (distinct cell_1_6 cell_2_6 cell_3_6 cell_4_6 cell_5_6 cell_6_6 cell_7_6 cell_8_6 cell_9_6) true))
(assert
 (and (distinct cell_1_7 cell_2_7 cell_3_7 cell_4_7 cell_5_7 cell_6_7 cell_7_7 cell_8_7 cell_9_7) true))
(assert
 (and (distinct cell_1_8 cell_2_8 cell_3_8 cell_4_8 cell_5_8 cell_6_8 cell_7_8 cell_8_8 cell_9_8) true))
(assert
 (and (distinct cell_1_9 cell_2_9 cell_3_9 cell_4_9 cell_5_9 cell_6_9 cell_7_9 cell_8_9 cell_9_9) true))
(assert
 (and (distinct cell_1_1 cell_1_2 cell_1_3 cell_2_1 cell_2_2 cell_2_3 cell_3_1 cell_3_2 cell_3_3) true))
(assert
 (and (distinct cell_1_4 cell_1_5 cell_1_6 cell_2_4 cell_2_5 cell_2_6 cell_3_4 cell_3_5 cell_3_6) true))
(assert
 (and (distinct cell_1_7 cell_1_8 cell_1_9 cell_2_7 cell_2_8 cell_2_9 cell_3_7 cell_3_8 cell_3_9) true))
(assert
 (and (distinct cell_4_1 cell_4_2 cell_4_3 cell_5_1 cell_5_2 cell_5_3 cell_6_1 cell_6_2 cell_6_3) true))
(assert
 (and (distinct cell_4_4 cell_4_5 cell_4_6 cell_5_4 cell_5_5 cell_5_6 cell_6_4 cell_6_5 cell_6_6) true))
(assert
 (and (distinct cell_4_7 cell_4_8 cell_4_9 cell_5_7 cell_5_8 cell_5_9 cell_6_7 cell_6_8 cell_6_9) true))
(assert
 (and (distinct cell_7_1 cell_7_2 cell_7_3 cell_8_1 cell_8_2 cell_8_3 cell_9_1 cell_9_2 cell_9_3) true))
(assert
 (and (distinct cell_7_4 cell_7_5 cell_7_6 cell_8_4 cell_8_5 cell_8_6 cell_9_4 cell_9_5 cell_9_6) true))
(assert
 (and (distinct cell_7_7 cell_7_8 cell_7_9 cell_8_7 cell_8_8 cell_8_9 cell_9_7 cell_9_8 cell_9_9) true))
(assert
 (let (($x5337 (and (distinct cell_5_9 cell_6_8 cell_7_7 cell_8_6) true)))
 (let (($x3851 (and (distinct cell_2_9 cell_3_8 cell_4_7 cell_5_6 cell_6_5 cell_7_4 cell_8_3 cell_9_2) true)))
 (let (($x3996 (and (distinct cell_1_8 cell_2_7 cell_3_6 cell_4_5 cell_5_4 cell_6_3 cell_7_2 cell_8_1) true)))
 (let (($x2861 (and (distinct cell_1_5 cell_2_4 cell_3_3 cell_4_2) true)))
 (let (($x5892 (and (distinct cell_5_1 cell_6_2 cell_7_3 cell_8_4) true)))
 (let (($x5531 (and (distinct cell_2_1 cell_3_2 cell_4_3 cell_5_4 cell_6_5 cell_7_6 cell_8_7 cell_9_8) true)))
 (let (($x3923 (and (distinct cell_1_2 cell_2_3 cell_3_4 cell_4_5 cell_5_6 cell_6_7 cell_7_8 cell_8_9) true)))
 (let (($x2986 (and (distinct cell_1_5 cell_2_6 cell_3_7 cell_4_8) true)))
 (and $x2986 $x3923 $x5531 $x5892 $x2861 $x3996 $x3851 $x5337))))))))))
(assert
 (and (distinct cell_3_1 2) true))
(check-sat)
